; benchmark generated from python API
(set-info :status unknown)
(declare-fun DISJ_W_S1_R_E1 () Bool)
(declare-fun DISJ_W_S1_R_S1 () Bool)
(declare-fun W_S1_V4 () Bool)
(declare-fun W_S1_V1 () Bool)
(declare-fun R_E1_V4 () Bool)
(declare-fun R_E1_V2 () Bool)
(declare-fun R_E1_V3 () Bool)
(declare-fun R_S1_V4 () Bool)
(declare-fun R_S1_V2 () Bool)
(declare-fun R_S1_V3 () Bool)
(declare-fun R_S1_V1 () Bool)
(declare-fun W_S1_V3 () Bool)
(declare-fun W_S1_V2 () Bool)
(declare-fun R_E1_V1 () Bool)
(assert
 (let (($x5041 (and DISJ_W_S1_R_S1 DISJ_W_S1_R_E1)))
 (let (($x439 (not $x5041)))
 (let (($x1346 (forall ((V3_0 Int) )(forall ((V2_0 Int) )(forall ((V4_0 Int) )(forall ((MW_S1_V1 Bool) )(forall ((MW_S1_V3 Bool) )(forall ((MW_S1_V2 Bool) )(forall ((MW_S1_V4 Bool) )(forall ((S1_V3_!438 Int) )(forall ((S1_V3_!444 Int) )(forall ((S1_V3_!449 Int) )(forall ((S1_V4_!440 Int) )(forall ((S1_V4_!446 Int) )(forall ((S1_V4_!451 Int) )(forall ((S1_V1_!437 Int) )(forall ((S1_V1_!443 Int) )(forall ((S1_V1_!448 Int) )(forall ((S1_V2_!439 Int) )(forall ((S1_V2_!445 Int) )(forall ((S1_V2_!450 Int) )(forall ((E1_!436 Int) )(forall ((E1_!441 Int) )(forall ((E1_!442 Int) )(forall ((E1_!447 Int) )(forall ((E1_!452 Int) )(let (($x487 (and (= (ite MW_S1_V1 S1_V1_!437 E1_!436) (+ (- 1) (ite MW_S1_V2 S1_V2_!450 V2_0))) (= (ite MW_S1_V3 S1_V3_!438 V3_0) (ite MW_S1_V3 S1_V3_!449 V3_0)) (= (ite MW_S1_V2 S1_V2_!439 V2_0) (ite MW_S1_V2 S1_V2_!450 V2_0)) (= (ite MW_S1_V4 S1_V4_!440 V4_0) (ite MW_S1_V4 S1_V4_!451 V4_0)))))
 (let ((?x977 (- 1)))
 (let (($x1888 (<= E1_!452 (+ ?x977 (ite MW_S1_V1 S1_V1_!448 (+ ?x977 (ite MW_S1_V1 S1_V1_!443 (+ ?x977 V2_0))))))))
 (let (($x2705 (and (not (<= V2_0 E1_!436)) (>= (ite MW_S1_V1 S1_V1_!437 E1_!436) (+ ?x977 (ite MW_S1_V2 S1_V2_!439 V2_0))) (not (<= V2_0 E1_!441)) (>= V2_0 (+ 1 E1_!442)) (>= (ite MW_S1_V1 S1_V1_!443 (+ ?x977 V2_0)) (+ 1 E1_!447)) (not $x1888))))
 (let (($x3336 (not MW_S1_V2)))
 (let (($x1678 (= E1_!452 E1_!447)))
 (let (($x1267 (and (or (not R_E1_V3) (= (ite MW_S1_V3 S1_V3_!449 V3_0) (ite MW_S1_V3 S1_V3_!444 V3_0))) (or (not R_E1_V2) (= (ite MW_S1_V2 S1_V2_!450 V2_0) (ite MW_S1_V2 S1_V2_!445 V2_0))) (or (not R_E1_V4) (= (ite MW_S1_V4 S1_V4_!451 V4_0) (ite MW_S1_V4 S1_V4_!446 V4_0))))))
 (let (($x1764 (= E1_!452 E1_!442)))
 (let (($x2425 (and (or (not R_E1_V3) (= (ite MW_S1_V3 S1_V3_!449 V3_0) V3_0)) (or (not R_E1_V2) (= (ite MW_S1_V2 S1_V2_!450 V2_0) V2_0)) (or (not R_E1_V4) (= (ite MW_S1_V4 S1_V4_!451 V4_0) V4_0)))))
 (let (($x1334 (not $x2425)))
 (let (($x3023 (= E1_!447 E1_!442)))
 (let (($x1805 (and (or (not R_E1_V3) (= (ite MW_S1_V3 S1_V3_!444 V3_0) V3_0)) (or (not R_E1_V2) (= (ite MW_S1_V2 S1_V2_!445 V2_0) V2_0)) (or (not R_E1_V4) (= (ite MW_S1_V4 S1_V4_!446 V4_0) V4_0)))))
 (let (($x3338 (and (or (not R_E1_V3) (= V3_0 (ite MW_S1_V3 S1_V3_!444 V3_0))) (or (not R_E1_V2) (= V2_0 (ite MW_S1_V2 S1_V2_!445 V2_0))) (or (not R_E1_V4) (= V4_0 (ite MW_S1_V4 S1_V4_!446 V4_0))))))
 (let (($x5850 (not $x3338)))
 (let (($x2697 (= E1_!441 E1_!436)))
 (let ((?x4735 (ite MW_S1_V4 S1_V4_!446 V4_0)))
 (let (($x3854 (= ?x4735 V4_0)))
 (let (($x2208 (not R_S1_V4)))
 (let (($x4196 (or $x2208 $x3854)))
 (let ((?x3321 (ite MW_S1_V2 S1_V2_!445 V2_0)))
 (let (($x5139 (= ?x3321 V2_0)))
 (let (($x3728 (not R_S1_V2)))
 (let (($x1978 (or $x3728 $x5139)))
 (let ((?x320 (ite MW_S1_V3 S1_V3_!444 V3_0)))
 (let (($x1079 (= ?x320 V3_0)))
 (let (($x1314 (not R_S1_V3)))
 (let (($x2836 (or $x1314 $x1079)))
 (let (($x4774 (and (or (not R_S1_V1) (= (ite MW_S1_V1 S1_V1_!443 (+ ?x977 V2_0)) V2_0)) $x2836 $x1978 $x4196)))
 (let (($x1731 (not $x4774)))
 (let (($x128 (= V4_0 ?x4735)))
 (let (($x4736 (or $x2208 $x128)))
 (let (($x29 (= V2_0 ?x3321)))
 (let (($x2528 (or $x3728 $x29)))
 (let (($x5871 (= V3_0 ?x320)))
 (let (($x1373 (or $x1314 $x5871)))
 (let (($x5736 (and (or (not R_S1_V1) (= E1_!436 (+ ?x977 (ite MW_S1_V1 S1_V1_!443 (+ ?x977 V2_0))))) $x1373 $x2528 $x4736)))
 (let (($x963 (not $x5736)))
 (let (($x3727 (not (or (not R_S1_V1) (= E1_!436 (+ ?x977 V2_0))))))
 (let (($x572 (not R_S1_V1)))
 (let (($x2451 (and (or $x572 (= (ite MW_S1_V1 S1_V1_!443 (+ ?x977 V2_0)) (+ 1 E1_!436))) $x2836 $x1978 $x4196)))
 (let (($x1008 (and (or $x572 (= V2_0 (ite MW_S1_V1 S1_V1_!443 (+ ?x977 V2_0)))) $x1373 $x2528 $x4736)))
 (let (($x2288 (not $x1008)))
 (let (($x1607 (and (or $x3727 (= S1_V3_!438 S1_V3_!444)) (or $x963 (= S1_V3_!438 S1_V3_!449)) (or $x2288 (= S1_V3_!444 S1_V3_!449)) (or (not (or $x572 (= V2_0 (+ 1 E1_!436)))) (= S1_V4_!446 S1_V4_!440)) (or $x2288 (= S1_V4_!446 S1_V4_!451)) (or (not $x2451) (= S1_V4_!451 S1_V4_!440)) (or $x3727 (= S1_V1_!437 S1_V1_!443)) (or $x963 (= S1_V1_!437 S1_V1_!448)) (or $x1731 (= S1_V1_!448 S1_V1_!443)) (or $x3727 (= S1_V2_!439 S1_V2_!445)) (or $x963 (= S1_V2_!439 S1_V2_!450)) (or $x1731 (= S1_V2_!450 S1_V2_!445)) (= E1_!436 E1_!442) (or $x5850 (= E1_!436 E1_!447)) $x2697 (= E1_!441 E1_!442) (or $x5850 (= E1_!441 E1_!447)) (or (not $x1805) $x3023) (or $x1334 (= E1_!452 E1_!436)) (or $x1334 (= E1_!452 E1_!441)) (or $x1334 $x1764) (or (not $x1267) $x1678) (or (not MW_S1_V1) W_S1_V1) $x3336 (or (not MW_S1_V4) W_S1_V4))))
 (or (not $x1607) (not $x2705) $x487)))))))))))))))))))))))))))))))))))))))))))))
 )
 )
 )
 )
 )
 )
 )
 )
 )
 )
 )
 )
 )
 )
 )
 )
 )
 )
 )
 )
 )
 )
 )
 ))
 (let (($x5333 (= DISJ_W_S1_R_E1 (not (or R_E1_V3 (and W_S1_V4 R_E1_V4))))))
 (let (($x680 (not (or (and W_S1_V1 R_S1_V1) R_S1_V3 (and W_S1_V4 R_S1_V4)))))
 (let (($x2741 (= DISJ_W_S1_R_S1 $x680)))
 (let (($x572 (not R_S1_V1)))
 (let (($x871 (and $x572 DISJ_W_S1_R_E1)))
 (let (($x5794 (not W_S1_V1)))
 (let (($x2576 (or $x5041 $x5794 $x871)))
 (let (($x5878 (not W_S1_V2)))
 (let (($x4983 (not R_E1_V1)))
 (and (and $x4983 $x5878 $x2576 W_S1_V3 $x2741 $x5333 $x1346) $x439))))))))))))))
(check-sat)
